db/data/23328209781926933187441327375476111.z3.out
-------------------
2500.091578038
